Results/Experiment 1 Results/Existing Benchmark/RES_100/i-100-75-6.txt
solutions: 0 nodes: 2  modelTime: 149  solveTime: 30  totalTime: 196  modelSize: 8403  readTime: 17 matchingSize: 0
