Results/Experiment 2 Results/Existing Benchmark/i-100-75-6.lp
clingo version 5.4.0
Reading from tempSRTISolver.lp ...
Solving...
UNSATISFIABLE

Models       : 0
Calls        : 1
Time         : 32.462s (Solving: 3.62s 1st Model: 0.00s Unsat: 3.62s)
CPU Time     : 32.457s
